n_boats=52;
n_periods=12;
capacity=[27,14,19,7,9,2,25,8,15,33,22,33,30,30,23,13,26,27,6,38,37,29,37,24,30,10,23,6,31,37,18,27,29,33,13,27,36,9,3,21,30,16,8,24,24,18,36,13,23,18,3,32];
crew=[13,6,7,4,5,1,11,4,9,11,13,9,10,8,13,5,8,6,2,7,13,9,9,14,15,2,11,3,14,8,10,7,16,8,2,9,11,5,1,5,17,4,1,9,13,6,18,3,13,6,1,18];
